c is-unsat
p cnf 10 68
-2 9 -6 0
-4 -1 -7 0
-7 -1 -4 0
-8 3 -6 0
-8 -1 -7 0
-9 -2 7 0
-9 -2 -7 0
9 -3 -2 0
-6 -10 5 0
-7 3 2 0
-10 -7 -5 0
9 -3 -7 0
4 10 -2 0
-7 -8 -4 0
-4 -9 -7 0
-2 9 -6 0
3 -1 -2 0
-5 -2 -3 0
-5 -6 -3 0
1 -4 -7 0
-8 -4 3 0
-9 -3 -10 0
-5 -7 6 0
5 9 3 0
-5 -10 9 0
9 -3 7 0
8 6 -10 0
-8 -5 -1 0
-9 -7 -10 0
-7 -9 -10 0
-8 -2 3 0
-1 7 -6 0
-6 -9 -8 0
5 -2 -1 0
-10 -8 -1 0
-10 -1 -6 0
-9 7 6 0
6 -3 2 0
-4 -6 -5 0
6 9 -7 0
5 -2 10 0
9 2 -5 0
-6 -8 -1 0
10 -2 -5 0
10 -3 -8 0
-9 -2 -5 0
-2 -10 -4 0
-3 -1 -5 0
5 -1 -10 0
-6 5 3 0
-5 7 -6 0
-9 -7 -3 0
-9 -6 -8 0
-10 -5 -1 0
7 -1 -5 0
9 -6 4 0
-2 -8 1 0
-1 -2 -5 0
-8 5 -9 0
3 -6 -2 0
-1 -8 -2 0
-10 -8 -2 0
-1 -8 2 0
-4 -9 2 0
-1 -7 -5 0
7 2 -9 0
-5 -10 1 0
-3 -10 -4 0
